PROBLEM NAME: eil51_n19
KNAPSACK DATA TYPE: multiple strongly correlated
DIMENSION: 19
NUMBER OF ITEMS: 18
CAPACITY OF KNAPSACK: 4844
MIN SPEED: 0.1
MAX SPEED: 1
RENTING RATIO: 8.43
EDGE_WEIGHT_TYPE: CEIL_2D
NODE_COORD_SECTION	(INDEX, X, Y):
1	37	52
2	49	49
3	52	64
4	52	33
5	51	21
6	36	16
7	52	41
8	27	23
9	16	57
10	7	38
11	43	67
12	58	48
13	37	69
14	62	63
15	32	22
16	45	35
17	10	17
18	5	64
19	30	15
ITEMS SECTION	(INDEX, PROFIT, WEIGHT, ASSIGNED NODE NUMBER):
1	1128	928	13
2	1048	848	11
3	1013	813	3
4	990	790	14
5	973	773	12
6	882	682	2
7	852	652	7
8	688	488	16
9	677	477	4
10	593	393	5
11	564	364	6
12	564	264	19
13	553	353	15
14	534	234	8
15	445	245	17
16	442	242	10
17	425	225	18
18	311	111	9
